\ Equation counts
\     Total        E        G        L        N        X        C        B
\        16       16        0        0        0        0        0        0
\ 
\ Variable counts
\                  x        b        i      s1s      s2s       sc       si
\     Total     cont   binary  integer     sos1     sos2    scont     sint
\        48        0       48        0        0        0        0        0
\ 
\ Nonzero counts
\     Total    const       NL      DLL
\        96       48       48        0
\ 
Minimize
 obj: 0 b1 + 0 b2 + 0 b3 + 0 b4 + 0 b5 + 0 b6 + 0 b7 + 0 b8 + 0 b9 + 0 b10 + 0 b11 + 0 b12 + 0 b13 + 0 b14 
  + 0 b15 + 0 b16 + 0 b17 + 0 b18 + 0 b19 + 0 b20 + 0 b21 + 0 b22 + 0 b23 + 0 b24 + 0 b25 + 0 b26 + 0 b27 
  + 0 b28 + 0 b29 + 0 b30 + 0 b31 + 0 b32 + 0 b33 + 0 b34 + 0 b35 + 0 b36 + 0 b37 + 0 b38 + 0 b39 + 0 b40 
  + 0 b41 + 0 b42 + 0 b43 + 0 b44 + 0 b45 + 0 b46 + 0 b47 + 0 b48 + [ - 2 b1 * b4 - 2 b1 * b10 + 2 b1 * b13 
  + 2 b1 * b37 - 2 b2 * b5 - 2 b2 * b11 + 2 b2 * b14 + 2 b2 * b38 - 2 b3 * b6 - 2 b3 * b12 + 2 b3 * b15 
  + 2 b3 * b39 + 2 b4 * b7 + 2 b4 * b16 - 2 b4 * b40 + 2 b5 * b8 + 2 b5 * b17 - 2 b5 * b41 + 2 b6 * b9 
  + 2 b6 * b18 - 2 b6 * b42 - 2 b7 * b10 + 2 b7 * b19 + 2 b7 * b43 - 2 b8 * b11 + 2 b8 * b20 + 2 b8 * b44 
  - 2 b9 * b12 + 2 b9 * b21 + 2 b9 * b45 - 2 b10 * b22 + 2 b10 * b46 - 2 b11 * b23 + 2 b11 * b47 - 2 b12 * b24 
  + 2 b12 * b48 - 2 b13 * b16 + 2 b13 * b22 - 2 b13 * b25 - 2 b14 * b17 + 2 b14 * b23 - 2 b14 * b26 - 2 b15 * b18 
  + 2 b15 * b24 - 2 b15 * b27 - 2 b16 * b19 + 2 b16 * b28 - 2 b17 * b20 + 2 b17 * b29 - 2 b18 * b21 + 2 b18 * b30 
  + 2 b19 * b22 - 2 b19 * b31 + 2 b20 * b23 - 2 b20 * b32 + 2 b21 * b24 - 2 b21 * b33 - 2 b22 * b34 - 2 b23 * b35 
  - 2 b24 * b36 + 2 b25 * b28 + 2 b25 * b34 - 2 b25 * b37 + 2 b26 * b29 + 2 b26 * b35 - 2 b26 * b38 + 2 b27 * b30 
  + 2 b27 * b36 - 2 b27 * b39 + 2 b28 * b31 + 2 b28 * b40 + 2 b29 * b32 + 2 b29 * b41 + 2 b30 * b33 + 2 b30 * b42 
  - 2 b31 * b34 - 2 b31 * b43 - 2 b32 * b35 - 2 b32 * b44 - 2 b33 * b36 - 2 b33 * b45 - 2 b34 * b46 - 2 b35 * b47 
  - 2 b36 * b48 + 2 b37 * b40 - 2 b37 * b46 + 2 b38 * b41 - 2 b38 * b47 + 2 b39 * b42 - 2 b39 * b48 - 2 b40 * b43 
  - 2 b41 * b44 - 2 b42 * b45 + 2 b43 * b46 + 2 b44 * b47 + 2 b45 * b48 ]/2

Subject To
 e1: b1 + b2 + b3 = 1
 e2: b4 + b5 + b6 = 1
 e3: b7 + b8 + b9 = 1
 e4: b10 + b11 + b12 = 1
 e5: b13 + b14 + b15 = 1
 e6: b16 + b17 + b18 = 1
 e7: b19 + b20 + b21 = 1
 e8: b22 + b23 + b24 = 1
 e9: b25 + b26 + b27 = 1
 e10: b28 + b29 + b30 = 1
 e11: b31 + b32 + b33 = 1
 e12: b34 + b35 + b36 = 1
 e13: b37 + b38 + b39 = 1
 e14: b40 + b41 + b42 = 1
 e15: b43 + b44 + b45 = 1
 e16: b46 + b47 + b48 = 1

Binary
 b1 b2 b3 b4 b5 b6 b7 b8 b9 b10 b11 b12 b13 b14 b15 b16 b17 b18 b19 b20 b21 b22 b23 b24 b25
 b26 b27 b28 b29 b30 b31 b32 b33 b34 b35 b36 b37 b38 b39 b40 b41 b42 b43 b44 b45 b46 b47 b48


End
